
Gurobi 10.0.3 (linux64, gurobi_cl) logging started Thu Nov  2 11:34:01 2023

Set parameter Username
Set parameter TimeLimit to value 3600
Set parameter LogFile to value "RCPSP_295.log"
Set parameter Threads to value 32
Academic license - for non-commercial use only - expires 2024-10-30
Using license file /home/jrivera6/gurobi-licenses/v1003/compute-0-35/gurobi.lic

Gurobi Optimizer version 10.0.3 build v10.0.3rc0 (linux64)
Copyright (c) 2023, Gurobi Optimization, LLC

Read MPS format model from file RCPSP_295.mps
Reading time = 0.01 seconds
RCPSP_295: 5339 rows, 2080 columns, 18883 nonzeros

CPU model: Intel(R) Xeon(R) Gold 6130 CPU @ 2.10GHz, instruction set [SSE2|AVX|AVX2|AVX512]
Thread count: 32 physical cores, 32 logical processors, using up to 32 threads

Optimize a model with 5339 rows, 2080 columns and 18883 nonzeros
Model fingerprint: 0xf5767cbb
Variable types: 32 continuous, 2048 integer (2048 binary)
Coefficient statistics:
  Matrix range     [1e+00, 2e+02]
  Objective range  [1e+00, 1e+00]
  Bounds range     [1e+00, 1e+00]
  RHS range        [1e+00, 2e+02]
Presolve removed 2909 rows and 1123 columns
Presolve time: 0.27s
Presolved: 2430 rows, 957 columns, 8755 nonzeros
Variable types: 31 continuous, 926 integer (926 binary)

Root relaxation: objective 5.200000e+01, 339 iterations, 0.00 seconds (0.00 work units)

    Nodes    |    Current Node    |     Objective Bounds      |     Work
 Expl Unexpl |  Obj  Depth IntInf | Incumbent    BestBd   Gap | It/Node Time

     0     0   52.00000    0   10          -   52.00000      -     -    0s
     0     0   52.00000    0   52          -   52.00000      -     -    0s
     0     0   52.00000    0    8          -   52.00000      -     -    0s
     0     0   52.00000    0   12          -   52.00000      -     -    1s
     0     0   52.00000    0   68          -   52.00000      -     -    1s
     0     0   52.00000    0    8          -   52.00000      -     -    1s
     0     0   52.00000    0   10          -   52.00000      -     -    1s
H    0     0                      65.0000000   52.00000  20.0%     -    1s
     0     0   52.00000    0   18   65.00000   52.00000  20.0%     -    1s
H    0     0                      64.0000000   52.00000  18.7%     -    1s
     0     0   52.00000    0    6   64.00000   52.00000  18.7%     -    1s
H    0     0                      63.0000000   52.00000  17.5%     -    1s
H    0     0                      58.0000000   52.00000  10.3%     -    2s
     0     0   52.00000    0   10   58.00000   52.00000  10.3%     -    3s
H    0     0                      54.0000000   52.00000  3.70%     -    3s
     0     0   52.00000    0   18   54.00000   52.00000  3.70%     -    4s
     0     0   52.00000    0   17   54.00000   52.00000  3.70%     -    4s
     0     0   52.00000    0   12   54.00000   52.00000  3.70%     -    6s
     0     0   52.00000    0   10   54.00000   52.00000  3.70%     -    7s
     0     0   52.00000    0   10   54.00000   52.00000  3.70%     -    7s
     0     0   52.00000    0   12   54.00000   52.00000  3.70%     -    8s
H    0     0                      53.0000000   52.00000  1.89%     -    9s
     0     0   52.00000    0   46   53.00000   52.00000  1.89%     -    9s
     0     0   52.00000    0   46   53.00000   52.00000  1.89%     -    9s
     0     0   52.00000    0  112   53.00000   52.00000  1.89%     -   10s

Cutting planes:
  Gomory: 2
  Cover: 16
  Implied bound: 29
  Clique: 33
  MIR: 13
  StrongCG: 2
  RLT: 10
  Relax-and-lift: 12

Explored 1 nodes (6229 simplex iterations) in 11.36 seconds (0.63 work units)
Thread count was 32 (of 32 available processors)

Solution count 6: 53 54 58 ... 65

Optimal solution found (tolerance 1.00e-04)
Best objective 5.300000000000e+01, best bound 5.300000000000e+01, gap 0.0000%

Wrote result file 'RCPSP_295.sol'

